Route #1: 18 67 60 119 143 71 48 167 178 101 185 125 42 115 80 
Route #2: 23 41 47 77 61 92 152 43 118 19 172 51 81 49 120 9 129 29 160 147 37 59 1 155 140 175 72 39 
Route #3: 34 4 100 104 63 3 165 135 170 180 14 98 176 105 93 130 198 10 64 126 154 53 171 
Route #4: 73 91 79 161 26 90 57 150 133 17 66 142 123 11 141 84 157 166 58 173 5 89 16 174 70 113 83 30 20 189 121 46 85 153 169 148 
Route #5: 74 192 36 33 62 179 162 137 117 35 177 134 94 28 149 108 76 188 97 190 52 
Route #6: 131 199 56 116 65 139 103 88 15 195 132 31 191 184 200 145 102 75 69 196 138 38 107 122 186 55 
Route #7: 144 111 158 82 2 106 54 182 110 109 12 87 25 163 
Route #8: 164 183 181 78 124 156 7 114 187 24 136 50 22 86 99 
Route #9: 168 151 45 8 95 128 194 197 44 32 40 6 27 193 146 21 68 13 159 127 112 96 
Cost 2843.3
